# Solution for model Asynchoronous-Version
# Objective value = 1.4982700168553936e+02
u_eg_o[101,1,1] 0
u_eg_o[101,1,2] 1
u_eg_o[101,1,3] 0
u_eg_o[101,1,4] 0
u_eg_o[102,1,1] 0
u_eg_o[102,1,2] 0
u_eg_o[102,1,3] 0
u_eg_o[102,1,4] 0
u_eg_o[203,1,1] 0
u_eg_o[203,1,2] 0
u_eg_o[203,1,3] 0
u_eg_o[203,1,4] 0
u_eg_o[303,1,1] 0
u_eg_o[303,1,2] 0
u_eg_o[303,1,3] 0
u_eg_o[303,1,4] 0
u_eg_o[101,2,1] 0
u_eg_o[101,2,2] 0
u_eg_o[101,2,3] 0
u_eg_o[101,2,4] 0
u_eg_o[102,2,1] 0
u_eg_o[102,2,2] 0
u_eg_o[102,2,3] 0
u_eg_o[102,2,4] 0
u_eg_o[203,2,1] 0
u_eg_o[203,2,2] 0
u_eg_o[203,2,3] 0
u_eg_o[203,2,4] 0
u_eg_o[303,2,1] 1
u_eg_o[303,2,2] 0
u_eg_o[303,2,3] 0
u_eg_o[303,2,4] 0
dL_eg_o[101,1,1] 1.1960000000000001e+02
dL_eg_o[101,1,2] 1.6639150953583858e+01
dL_eg_o[101,1,3] 1.1960000000000001e+02
dL_eg_o[101,1,4] 1.1960000000000001e+02
dL_eg_o[102,1,1] 1.1960000000000001e+02
dL_eg_o[102,1,2] 1.1960000000000001e+02
dL_eg_o[102,1,3] 1.1960000000000001e+02
dL_eg_o[102,1,4] 1.1960000000000001e+02
dL_eg_o[203,1,1] 1.1960000000000001e+02
dL_eg_o[203,1,2] 1.1960000000000001e+02
dL_eg_o[203,1,3] 1.1960000000000001e+02
dL_eg_o[203,1,4] 1.1960000000000001e+02
dL_eg_o[303,1,1] 1.1960000000000001e+02
dL_eg_o[303,1,2] 1.1960000000000001e+02
dL_eg_o[303,1,3] 1.1960000000000001e+02
dL_eg_o[303,1,4] 1.1960000000000001e+02
dL_eg_o[101,2,1] 1.1960000000000001e+02
dL_eg_o[101,2,2] 1.1960000000000001e+02
dL_eg_o[101,2,3] 1.1960000000000001e+02
dL_eg_o[101,2,4] 1.1960000000000001e+02
dL_eg_o[102,2,1] 1.1960000000000001e+02
dL_eg_o[102,2,2] 1.1960000000000001e+02
dL_eg_o[102,2,3] 1.1960000000000001e+02
dL_eg_o[102,2,4] 1.1960000000000001e+02
dL_eg_o[203,2,1] 1.1960000000000001e+02
dL_eg_o[203,2,2] 1.1960000000000001e+02
dL_eg_o[203,2,3] 1.1960000000000001e+02
dL_eg_o[203,2,4] 1.1960000000000001e+02
dL_eg_o[303,2,1] 7.59483798315726
dL_eg_o[303,2,2] 1.1960000000000001e+02
dL_eg_o[303,2,3] 1.1960000000000001e+02
dL_eg_o[303,2,4] 1.1960000000000001e+02
difL_eg_o[101,1,1,0] 5.4239129706860645e+01
difL_eg_o[101,1,1,1] 4.2007946937135188e+01
difL_eg_o[101,1,2,0] 1.5886573718365730e+01
difL_eg_o[101,1,2,1] 4.9475063118669862e+00
difL_eg_o[101,1,3,0] 4.4105869008650906e+01
difL_eg_o[101,1,3,1] 4.1706837498873114e+01
difL_eg_o[101,1,4,0] 4.4106455318406049e+01
difL_eg_o[101,1,4,1] 4.1708705764733935e+01
difL_eg_o[102,1,1,0] 5.4484743733164862e+01
difL_eg_o[102,1,1,1] 4.5151762196374108e+01
difL_eg_o[102,1,2,0] 4.1235307042309621e+01
difL_eg_o[102,1,2,1] 4.3208573776375395e+01
difL_eg_o[102,1,3,0] 4.4230315137284890e+01
difL_eg_o[102,1,3,1] 4.2722838477340510e+01
difL_eg_o[102,1,4,0] 4.4230246889271626e+01
difL_eg_o[102,1,4,1] 4.2729825835985480e+01
difL_eg_o[203,1,1,0] 5.6964033879396084e+01
difL_eg_o[203,1,1,1] 4.1355004817116082e+01
difL_eg_o[203,1,2,0] 4.2233837709130967e+01
difL_eg_o[203,1,2,1] 4.2042500709791327e+01
difL_eg_o[203,1,3,0] 4.5837974390216459e+01
difL_eg_o[203,1,3,1] 4.1440265861975980e+01
difL_eg_o[203,1,4,0] 4.5839107623941892e+01
difL_eg_o[203,1,4,1] 4.1441778807120436e+01
difL_eg_o[303,1,1,0] 5.6287138482118635e+01
difL_eg_o[303,1,1,1] 4.5278102644488264e+01
difL_eg_o[303,1,2,0] 4.1823503580753240e+01
difL_eg_o[303,1,2,1] 4.3318411540557662e+01
difL_eg_o[303,1,3,0] 4.5342661626831848e+01
difL_eg_o[303,1,3,1] 4.2732983917684365e+01
difL_eg_o[303,1,4,0] 4.5343001183046134e+01
difL_eg_o[303,1,4,1] 4.2740979654781157e+01
difL_eg_o[101,2,1,0] 4.2359781242695121e+01
difL_eg_o[101,2,1,1] 4.1972959644183241e+01
difL_eg_o[101,2,2,0] 4.9157900663315012e+01
difL_eg_o[101,2,2,1] 4.3753799873137986e+01
difL_eg_o[101,2,3,0] 4.5373873786548565e+01
difL_eg_o[101,2,3,1] 44.3892162095799
difL_eg_o[101,2,4,0] 4.5373903256808156e+01
difL_eg_o[101,2,4,1] 4.4375018835464580e+01
difL_eg_o[102,2,1,0] 4.2167791975356167e+01
difL_eg_o[102,2,1,1] 4.1957011108229160e+01
difL_eg_o[102,2,2,0] 5.0250310013479655e+01
difL_eg_o[102,2,2,1] 4.1733061766480589e+01
difL_eg_o[102,2,3,0] 4.6298843339491562e+01
difL_eg_o[102,2,3,1] 4.2470551685551307e+01
difL_eg_o[102,2,4,0] 4.6297913962276581e+01
difL_eg_o[102,2,4,1] 4.2463388445019078e+01
difL_eg_o[203,2,1,0] 4.3085656669566660e+01
difL_eg_o[203,2,1,1] 4.1854507978685881e+01
difL_eg_o[203,2,2,0] 4.6939023397935152e+01
difL_eg_o[203,2,2,1] 4.3959477064400211e+01
difL_eg_o[203,2,3,0] 4.3759417315329486e+01
difL_eg_o[203,2,3,1] 4.4492846841647193e+01
difL_eg_o[203,2,4,0] 4.3760256673309406e+01
difL_eg_o[203,2,4,1] 4.4479586261302522e+01
difL_eg_o[303,2,1,0] 4.1019755821601969e+00
difL_eg_o[303,2,1,1] 6.3402931778939653e+00
difL_eg_o[303,2,2,0] 47.2063145512365
difL_eg_o[303,2,2,1] 4.2505083574484857e+01
difL_eg_o[303,2,3,0] 4.4006070252194853e+01
difL_eg_o[303,2,3,1] 4.3077638209339760e+01
difL_eg_o[303,2,4,0] 4.4006297354149225e+01
difL_eg_o[303,2,4,1] 4.3069763917180133e+01
pL_eg_o[101,1,1] 0
pL_eg_o[101,1,2] 1.6639150953583858e+01
pL_eg_o[101,1,3] 0
pL_eg_o[101,1,4] 0
pL_eg_o[102,1,1] 0
pL_eg_o[102,1,2] 0
pL_eg_o[102,1,3] 0
pL_eg_o[102,1,4] 0
pL_eg_o[203,1,1] 0
pL_eg_o[203,1,2] 0
pL_eg_o[203,1,3] 0
pL_eg_o[203,1,4] 0
pL_eg_o[303,1,1] 0
pL_eg_o[303,1,2] 0
pL_eg_o[303,1,3] 0
pL_eg_o[303,1,4] 0
pL_eg_o[101,2,1] 0
pL_eg_o[101,2,2] 0
pL_eg_o[101,2,3] 0
pL_eg_o[101,2,4] 0
pL_eg_o[102,2,1] 0
pL_eg_o[102,2,2] 0
pL_eg_o[102,2,3] 0
pL_eg_o[102,2,4] 0
pL_eg_o[203,2,1] 0
pL_eg_o[203,2,2] 0
pL_eg_o[203,2,3] 0
pL_eg_o[203,2,4] 0
pL_eg_o[303,2,1] 7.59483798315726
pL_eg_o[303,2,2] 0
pL_eg_o[303,2,3] 0
pL_eg_o[303,2,4] 0
v_eg_o[101,1,1] 0
v_eg_o[101,1,2] 0
v_eg_o[101,1,3] 0
v_eg_o[101,1,4] 0
v_eg_o[102,1,1] 0
v_eg_o[102,1,2] 0
v_eg_o[102,1,3] 0
v_eg_o[102,1,4] 1
v_eg_o[203,1,1] 0
v_eg_o[203,1,2] 0
v_eg_o[203,1,3] 0
v_eg_o[203,1,4] 0
v_eg_o[303,1,1] 0
v_eg_o[303,1,2] 0
v_eg_o[303,1,3] 0
v_eg_o[303,1,4] 0
v_eg_o[101,2,1] 0
v_eg_o[101,2,2] 0
v_eg_o[101,2,3] 0
v_eg_o[101,2,4] 0
v_eg_o[102,2,1] 0
v_eg_o[102,2,2] 0
v_eg_o[102,2,3] 0
v_eg_o[102,2,4] 0
v_eg_o[203,2,1] 0
v_eg_o[203,2,2] 0
v_eg_o[203,2,3] 1
v_eg_o[203,2,4] 0
v_eg_o[303,2,1] 0
v_eg_o[303,2,2] 0
v_eg_o[303,2,3] 0
v_eg_o[303,2,4] 0
dR_eg_o[101,1,1] 1.1960000000000001e+02
dR_eg_o[101,1,2] 1.1960000000000001e+02
dR_eg_o[101,1,3] 1.1960000000000001e+02
dR_eg_o[101,1,4] 1.1960000000000001e+02
dR_eg_o[102,1,1] 1.1960000000000001e+02
dR_eg_o[102,1,2] 1.1960000000000001e+02
dR_eg_o[102,1,3] 1.1960000000000001e+02
dR_eg_o[102,1,4] 6.0458630538773983e+00
dR_eg_o[203,1,1] 1.1960000000000001e+02
dR_eg_o[203,1,2] 1.1960000000000001e+02
dR_eg_o[203,1,3] 1.1960000000000001e+02
dR_eg_o[203,1,4] 1.1960000000000001e+02
dR_eg_o[303,1,1] 1.1960000000000001e+02
dR_eg_o[303,1,2] 1.1960000000000001e+02
dR_eg_o[303,1,3] 1.1960000000000001e+02
dR_eg_o[303,1,4] 1.1960000000000001e+02
dR_eg_o[101,2,1] 1.1960000000000001e+02
dR_eg_o[101,2,2] 1.1960000000000001e+02
dR_eg_o[101,2,3] 1.1960000000000001e+02
dR_eg_o[101,2,4] 1.1960000000000001e+02
dR_eg_o[102,2,1] 1.1960000000000001e+02
dR_eg_o[102,2,2] 1.1960000000000001e+02
dR_eg_o[102,2,3] 1.1960000000000001e+02
dR_eg_o[102,2,4] 1.1960000000000001e+02
dR_eg_o[203,2,1] 1.1960000000000001e+02
dR_eg_o[203,2,2] 1.1960000000000001e+02
dR_eg_o[203,2,3] 1.6980028084963447e+01
dR_eg_o[203,2,4] 1.1960000000000001e+02
dR_eg_o[303,2,1] 1.1960000000000001e+02
dR_eg_o[303,2,2] 1.1960000000000001e+02
dR_eg_o[303,2,3] 1.1960000000000001e+02
dR_eg_o[303,2,4] 1.1960000000000001e+02
difR_eg_o[101,1,1,0] 4.5837192829291226e+01
difR_eg_o[101,1,1,1] 4.1442092820535748e+01
difR_eg_o[101,1,2,0] 4.5819715742964640e+01
difR_eg_o[101,1,2,1] 4.1442925242394871e+01
difR_eg_o[101,1,3,0] 4.9642376569563751e+01
difR_eg_o[101,1,3,1] 4.2879314442099471e+01
difR_eg_o[101,1,4,0] 4.1732372361940854e+01
difR_eg_o[101,1,4,1] 4.1546651396467240e+01
difR_eg_o[102,1,1,0] 4.4105254127119352e+01
difR_eg_o[102,1,1,1] 4.1708871990815979e+01
difR_eg_o[102,1,2,0] 4.4093557319422445e+01
difR_eg_o[102,1,2,1] 4.1708260789086815e+01
difR_eg_o[102,1,3,0] 4.7190382661266952e+01
difR_eg_o[102,1,3,1] 4.3394844469867948e+01
difR_eg_o[102,1,4,0] 1.5461241670133616e+00
difR_eg_o[102,1,4,1] 5.8448232421630939e+00
difR_eg_o[203,1,1,0] 4.5341182038509714e+01
difR_eg_o[203,1,1,1] 4.2741294662124417e+01
difR_eg_o[203,1,2,0] 4.5325218078801413e+01
difR_eg_o[203,1,2,1] 4.2735654366361750e+01
difR_eg_o[203,1,3,0] 4.8810357445162104e+01
difR_eg_o[203,1,3,1] 4.6448765629721017e+01
difR_eg_o[203,1,4,0] 4.1810591239166015e+01
difR_eg_o[203,1,4,1] 4.2602174172433486e+01
difR_eg_o[303,1,1,0] 4.4228931203766983e+01
difR_eg_o[303,1,1,1] 4.2730076200646216e+01
difR_eg_o[303,1,2,0] 4.4217067844783230e+01
difR_eg_o[303,1,2,1] 4.2724972060104783e+01
difR_eg_o[303,1,3,0] 4.7214492638801566e+01
difR_eg_o[303,1,3,1] 4.6332114966301226e+01
difR_eg_o[303,1,4,0] 4.2914221583743341e+01
difR_eg_o[303,1,4,1] 4.2313112305294652e+01
difR_eg_o[101,2,1,0] 4.3761510194160479e+01
difR_eg_o[101,2,1,1] 4.4479338708591939e+01
difR_eg_o[101,2,2,0] 4.3772319465912666e+01
difR_eg_o[101,2,2,1] 4.4490721195136224e+01
difR_eg_o[101,2,3,0] 4.1760285470940936e+01
difR_eg_o[101,2,3,1] 4.1636160472017750e+01
difR_eg_o[101,2,4,0] 5.7301111297465020e+01
difR_eg_o[101,2,4,1] 4.3032758985356423e+01
difR_eg_o[102,2,1,0] 4.5375951745779282e+01
difR_eg_o[102,2,1,1] 4.4374685729210917e+01
difR_eg_o[102,2,2,0] 4.5393211071852228e+01
difR_eg_o[102,2,2,1] 4.4386379288540851e+01
difR_eg_o[102,2,3,0] 4.2483807506464537e+01
difR_eg_o[102,2,3,1] 4.1579511442472892e+01
difR_eg_o[102,2,4,0] 6.0516932204410836e+01
difR_eg_o[102,2,4,1] 4.2718117890050259e+01
difR_eg_o[203,2,1,0] 4.4007535850967791e+01
difR_eg_o[203,2,1,1] 4.3069519732499252e+01
difR_eg_o[203,2,2,0] 4.4018864275457283e+01
difR_eg_o[203,2,2,1] 4.3075543537707723e+01
difR_eg_o[203,2,3,0] 15.0978656448196
difR_eg_o[203,2,3,1] 7.4870418370984684e+00
difR_eg_o[203,2,4,0] 5.7592543739404441e+01
difR_eg_o[203,2,4,1] 4.1171943136245275e+01
difR_eg_o[303,2,1,0] 4.6300211140520858e+01
difR_eg_o[303,2,1,1] 4.2463014107457255e+01
difR_eg_o[303,2,2,0] 4.6320313838809028e+01
difR_eg_o[303,2,2,1] 42.467373418159
difR_eg_o[303,2,3,0] 4.2916537480285477e+01
difR_eg_o[303,2,3,1] 4.1585446671581423e+01
difR_eg_o[303,2,4,0] 6.1944110073394505e+01
difR_eg_o[303,2,4,1] 4.0031721556471659e+01
pR_eg_o[101,1,1] 0
pR_eg_o[101,1,2] 0
pR_eg_o[101,1,3] 0
pR_eg_o[101,1,4] 0
pR_eg_o[102,1,1] 0
pR_eg_o[102,1,2] 0
pR_eg_o[102,1,3] 0
pR_eg_o[102,1,4] 6.0458630538774
pR_eg_o[203,1,1] 0
pR_eg_o[203,1,2] 0
pR_eg_o[203,1,3] 0
pR_eg_o[203,1,4] 0
pR_eg_o[303,1,1] 0
pR_eg_o[303,1,2] 0
pR_eg_o[303,1,3] 0
pR_eg_o[303,1,4] 0
pR_eg_o[101,2,1] 0
pR_eg_o[101,2,2] 0
pR_eg_o[101,2,3] 0
pR_eg_o[101,2,4] 0
pR_eg_o[102,2,1] 0
pR_eg_o[102,2,2] 0
pR_eg_o[102,2,3] 0
pR_eg_o[102,2,4] 0
pR_eg_o[203,2,1] 0
pR_eg_o[203,2,2] 0
pR_eg_o[203,2,3] 1.6980028084963450e+01
pR_eg_o[203,2,4] 0
pR_eg_o[303,2,1] 0
pR_eg_o[303,2,2] 0
pR_eg_o[303,2,3] 0
pR_eg_o[303,2,4] 0
gamma_g_o[1,1] 0
gamma_g_o[1,2] 1
gamma_g_o[1,3] 1
gamma_g_o[1,4] 0
gamma_g_o[2,1] 1
gamma_g_o[2,2] 1
gamma_g_o[2,3] 0
gamma_g_o[2,4] 0
k_o[1] 2
k_o[2] 1
k_o[3] 0
k_o[4] 1
z_eg_e'g[101,102,1] 0
z_eg_e'g[101,203,1] 1
z_eg_e'g[101,303,1] 0
z_eg_e'g[102,101,1] 0
z_eg_e'g[102,203,1] 0
z_eg_e'g[102,303,1] 0
z_eg_e'g[203,101,1] 0
z_eg_e'g[203,102,1] 0
z_eg_e'g[203,303,1] 1
z_eg_e'g[303,101,1] 0
z_eg_e'g[303,102,1] 1
z_eg_e'g[303,203,1] 0
z_eg_e'g[101,102,2] 0
z_eg_e'g[101,203,2] 1
z_eg_e'g[101,303,2] 0
z_eg_e'g[102,101,2] 1
z_eg_e'g[102,203,2] 0
z_eg_e'g[102,303,2] 0
z_eg_e'g[203,101,2] 0
z_eg_e'g[203,102,2] 0
z_eg_e'g[203,303,2] 0
z_eg_e'g[303,101,2] 0
z_eg_e'g[303,102,2] 1
z_eg_e'g[303,203,2] 0
s_eg[101,1] 0
s_eg[102,1] 3
s_eg[203,1] 1
s_eg[303,1] 1.9999999999999971e+00
s_eg[101,2] 2
s_eg[102,2] 1
s_eg[203,2] 3
s_eg[303,2] 0
mu_eg[101,1] 1
mu_eg[102,1] 1
mu_eg[203,1] 1
mu_eg[303,1] 1
mu_eg[101,2] 1
mu_eg[102,2] 1
mu_eg[203,2] 1
mu_eg[303,2] 1
dLR_g[1] 4.5999995246872139e+01
dLR_g[2] 4.5213529333658641e+01
d_eg_e'g[101,102,1] 1.3460329695166116e+01
d_eg_e'g[101,203,1] 0
d_eg_e'g[101,303,1] 1.3872566020974125e+01
d_eg_e'g[102,101,1] 1.3460329695166116e+01
d_eg_e'g[102,203,1] 1.3872566020974126e+01
d_eg_e'g[102,303,1] 1.3872566020974125e+01
d_eg_e'g[203,101,1] 1.3872566020974125e+01
d_eg_e'g[203,102,1] 1.3872566020974126e+01
d_eg_e'g[203,303,1] 0
d_eg_e'g[303,101,1] 1.3872566020974125e+01
d_eg_e'g[303,102,1] 0
d_eg_e'g[303,203,1] 1.3460329695166116e+01
d_eg_e'g[101,102,2] 1.3256303178693848e+01
d_eg_e'g[101,203,2] 0
d_eg_e'g[101,303,2] 1.3256303178693848e+01
d_eg_e'g[102,101,2] 0
d_eg_e'g[102,203,2] 1.3256303178693848e+01
d_eg_e'g[102,303,2] 1.0053237924661675e+01
d_eg_e'g[203,101,2] 1.0053237924661675e+01
d_eg_e'g[203,102,2] 1.3256303178693848e+01
d_eg_e'g[203,303,2] 1.3256303178693848e+01
d_eg_e'g[303,101,2] 1.3256303178693848e+01
d_eg_e'g[303,102,2] 0
d_eg_e'g[303,203,2] 1.3256303178693848e+01
dif_eg_e'g[101,102,1,0] 6.4224072015338756e+00
dif_eg_e'g[101,102,1,1] 1.1829334775897442e+01
dif_eg_e'g[101,203,1,0] 0
dif_eg_e'g[101,203,1,1] 0
dif_eg_e'g[101,303,1,0] 1.4598876057261183e+00
dif_eg_e'g[101,303,1,1] 1.2915031825432521e+01
dif_eg_e'g[102,101,1,0] 0
dif_eg_e'g[102,101,1,1] 0
dif_eg_e'g[102,203,1,0] 7.6124903489083389e+00
dif_eg_e'g[102,203,1,1] 4.8146566399392476e-01
dif_eg_e'g[102,303,1,0] 6.1526027431822854e+00
dif_eg_e'g[102,303,1,1] 1.2433566161438627e+01
dif_eg_e'g[203,101,1,0] 6.1526027431824026e+00
dif_eg_e'g[203,101,1,1] 1.2433566161438568e+01
dif_eg_e'g[203,102,1,0] 4.9625195958077484e+00
dif_eg_e'g[203,102,1,1] 1.0856970495349785e+00
dif_eg_e'g[203,303,1,0] 0
dif_eg_e'g[203,303,1,1] 0
dif_eg_e'g[303,101,1,0] 1.1900831473745361e+00
dif_eg_e'g[303,101,1,1] 1.1347869111903591e+01
dif_eg_e'g[303,102,1,0] 0
dif_eg_e'g[303,102,1,1] 0
dif_eg_e'g[303,203,1,0] 6.4224072015337406e+00
dif_eg_e'g[303,203,1,1] 1.1829334775897514e+01
dif_eg_e'g[101,102,2,0] 9.8515137863165378e+00
dif_eg_e'g[101,102,2,1] 8.8700197341079132e+00
dif_eg_e'g[101,203,2,0] 0
dif_eg_e'g[101,203,2,1] 0
dif_eg_e'g[101,303,2,0] 0.372570359432423
dif_eg_e'g[101,303,2,1] 7.1121088202323932e+00
dif_eg_e'g[102,101,2,0] 0
dif_eg_e'g[102,101,2,1] 0
dif_eg_e'g[102,203,2,0] 7.0365451130020444e+00
dif_eg_e'g[102,203,2,1] 4.1511066996719137e-01
dif_eg_e'g[102,303,2,0] 6.6639747535696268e+00
dif_eg_e'g[102,303,2,1] 7.5272194901997125e+00
dif_eg_e'g[203,101,2,0] 6.6639747535696348e+00
dif_eg_e'g[203,101,2,1] 7.5272194901997054e+00
dif_eg_e'g[203,102,2,0] 9.4789434268841291e+00
dif_eg_e'g[203,102,2,1] 1.7579109138756621e+00
dif_eg_e'g[203,303,2,0] 0
dif_eg_e'g[203,303,2,1] 0
dif_eg_e'g[303,101,2,0] 2.8149686733145032e+00
dif_eg_e'g[303,101,2,1] 9.2851304040752112e+00
dif_eg_e'g[303,102,2,0] 0
dif_eg_e'g[303,102,2,1] 0
dif_eg_e'g[303,203,2,0] 9.8515137863164171e+00
dif_eg_e'g[303,203,2,1] 8.8700197341080482e+00
p_eg_e'g[101,102,1] 0
p_eg_e'g[101,203,1] 0
p_eg_e'g[101,303,1] 0
p_eg_e'g[102,101,1] 0
p_eg_e'g[102,203,1] 0
p_eg_e'g[102,303,1] 0
p_eg_e'g[203,101,1] 0
p_eg_e'g[203,102,1] 0
p_eg_e'g[203,303,1] 0
p_eg_e'g[303,101,1] 0
p_eg_e'g[303,102,1] 0
p_eg_e'g[303,203,1] 0
p_eg_e'g[101,102,2] 0
p_eg_e'g[101,203,2] 0
p_eg_e'g[101,303,2] 0
p_eg_e'g[102,101,2] 0
p_eg_e'g[102,203,2] 0
p_eg_e'g[102,303,2] 0
p_eg_e'g[203,101,2] 0
p_eg_e'g[203,102,2] 0
p_eg_e'g[203,303,2] 0
p_eg_e'g[303,101,2] 0
p_eg_e'g[303,102,2] 0
p_eg_e'g[303,203,2] 0
R_eg[101,1,0] 9.2387509651091648e+01
R_eg[101,1,1] 2.8760880398366986e+01
R_eg[102,1,0] 9.3577592798466185e+01
R_eg[102,1,1] 4.0108749510270577e+01
R_eg[203,1,0] 9.9999999999999986e+01
R_eg[203,1,1] 2.8279414734373063e+01
R_eg[303,1,0] 9.8540112394273947e+01
R_eg[303,1,1] 4.1194446559805613e+01
R_eg[101,2,0] 4.3835535237325324e+01
R_eg[101,2,1] 1.2799493503122923e+00
R_eg[102,2,0] 4.1020566564010828e+01
R_eg[102,2,1] 1.0565079754387511e+01
R_eg[203,2,0] 5.0872080350327366e+01
R_eg[203,2,1] 1.6950600202794703e+00
R_eg[303,2,0] 5.0499509990894957e+01
R_eg[303,2,1] 8.8071688405119914e+00
rho_eg[101,1] 1.0000000000000071e+00
rho_eg[102,1] 1.2878587085651816e-14
rho_eg[203,1] 9.9999999999999867e-01
rho_eg[303,1] 0
rho_eg[101,2] 9.9999999999999911e-01
rho_eg[102,2] 0
rho_eg[203,2] 9.9999999999999034e-01
rho_eg[303,2] -8.8817841970012523e-16
L_eg[101,1,0] 1.0000000000000006e+02
L_eg[101,1,1] 2.8279414734373091e+01
L_eg[102,1,0] 9.2387509651091648e+01
L_eg[102,1,1] 2.8760880398366986e+01
L_eg[203,1,0] 9.8540112394273933e+01
L_eg[203,1,1] 4.1194446559805556e+01
L_eg[303,1,0] 93.5775927984662
L_eg[303,1,1] 4.0108749510270577e+01
L_eg[101,2,0] 5.0872080350327373e+01
L_eg[101,2,1] 1.6950600202795982e+00
L_eg[102,2,0] 4.3835535237325317e+01
L_eg[102,2,1] 1.2799493503122790e+00
L_eg[203,2,0] 5.0499509990894957e+01
L_eg[203,2,1] 8.80716884051185
L_eg[303,2,0] 4.1020566564010828e+01
L_eg[303,2,1] 1.0565079754387511e+01
lambda_eg[101,1] 0
lambda_eg[102,1] 1.0000000000000129e+00
lambda_eg[203,1] 4.4408920985006262e-16
lambda_eg[303,1] 1
lambda_eg[101,2] -8.8817841970012523e-16
lambda_eg[102,2] 1.0000000000000013e+00
lambda_eg[203,2] -7.5495165674510645e-15
lambda_eg[303,2] 9.9999999999999822e-01
min_eg[101,1] 0
min_eg[102,1] 1
min_eg[203,1] 0
min_eg[303,1] 1
min_eg[101,2] 0
min_eg[102,2] 1
min_eg[203,2] 0
min_eg[303,2] 1
max_eg[101,1] 1
max_eg[102,1] 0
max_eg[203,1] 1
max_eg[303,1] 0
max_eg[101,2] 1
max_eg[102,2] 0
max_eg[203,2] 1
max_eg[303,2] 0
entry_eg[101,1] 0
entry_eg[102,1] 1
entry_eg[203,1] 0
entry_eg[303,1] 1
entry_eg[101,2] 0
entry_eg[102,2] 1
entry_eg[203,2] 0
entry_eg[303,2] 1
p_eg[101,1] 1
p_eg[102,1] 1
p_eg[203,1] 1
p_eg[303,1] 1
p_eg[101,2] 1
p_eg[102,2] 1
p_eg[203,2] 1
p_eg[303,2] 1
alpha_eg[101,1] 1
alpha_eg[102,1] 1
alpha_eg[203,1] 1
alpha_eg[303,1] 1
alpha_eg[101,2] 1
alpha_eg[102,2] 1
alpha_eg[203,2] 1
alpha_eg[303,2] 1
xL_o[1,0] 4.7329194021158585e+01
xL_o[1,1] 1.4728853143531106e+01
xL_o[2,0] 7.6500936183515847e+01
xL_o[2,1] 2.3813374086499952e+01
xL_o[3,0] 7.1681893368324680e+01
xL_o[3,1] 2.4337155387751455e+01
xL_o[4,0] 7.1667186353217772e+01
xL_o[4,1] 2.4181275343337813e+01
xR_o[1,0] 7.1682806659402786e+01
xR_o[1,1] 2.4180926284431315e+01
xR_o[2,0] 7.1810988528365343e+01
xR_o[2,1] 2.4334182882545086e+01
xR_o[3,0] 6.5249717515258851e+01
xR_o[3,1] 1.5714400007268225e+01
xR_o[4,0] 9.3933633492272492e+01
xR_o[4,1] 2.2916057036928336e+01
d_orig 4.9568051133876573e+01
dif_orig[0] 4.7329193721073430e+01
dif_orig[1] 1.4728853143531094e+01
d_dest 2.3705410776917748e+01
dif_dest[0] 6.0663665077274178e+00
dif_dest[1] 2.2916056676858059e+01
yLL_o[1] 1
yLL_o[2] 0
yLL_o[3] 0
dLL_o[1] 3.0553545280807416e+01
dLL_o[2] 100000
dLL_o[3] 100000
difLL_o[1,0] 2.9171742211440272e+01
difLL_o[1,1] 9.0845202184670573e+00
difLL_o[2,0] 4.7846054247708664e+04
difLL_o[2,1] 4.7846133950911128e+04
difLL_o[3,0] 4.7846110273693754e+04
difLL_o[3,1] 4.7846028428137826e+04
pLL_o[1] 3.0553545229333288e+01
pLL_o[2] 0
pLL_o[3] 0
yLR_o[1] 0
yLR_o[2] 1
yLR_o[3] 0
dLR_o[1] 100000
dLR_o[2] 1.4659983374353255e+01
dLR_o[3] 100000
difLR_o[1,0] 4.7849901416358480e+04
difLR_o[1,1] 4.7849869544964407e+04
difLR_o[2,0] 1.1422714185971845e+01
difLR_o[2,1] 9.1250707356139440e+00
difLR_o[3,0] 4.7843225930924847e+04
difLR_o[3,1] 4.7852828224541168e+04
pLR_o[1] 0
pLR_o[2] 1.4659983374353255e+01
pLR_o[3] 0
yRL_o[1] 0
yRL_o[2] 0
yRL_o[3] 0
dRL_o[1] 100000
dRL_o[2] 100000
dRL_o[3] 100000
difRL_o[1,0] 4.7846107432222452e+04
difRL_o[1,1] 4.7846097559977221e+04
difRL_o[2,0] 4.7846039380539791e+04
difRL_o[2,1] 4.7846102885806453e+04
difRL_o[3,0] 4.7846112590653909e+04
difRL_o[3,1] 4.7846068280539970e+04
pRL_o[1] 0
pRL_o[2] 0
pRL_o[3] 0
yRR_o[1] 0
yRR_o[2] 0
yRR_o[3] 1
dRR_o[1] 100000
dRR_o[2] 100000
dRR_o[3] 3.1340011171058492e+01
difRR_o[1,0] 4.7846073380278183e+04
difRR_o[1,1] 4.7846051327446621e+04
difRR_o[2,0] 4.7845990138178888e+04
difRR_o[2,1] 4.7846100123608092e+04
difRR_o[3,0] 2.9491351976016315e+01
difRR_o[3,1] 9.2206911571858363e+00
pRR_o[1] 0
pRR_o[2] 0
pRR_o[3] 31.3400111710585
droneg[1] 4.5999995367460855e+01
droneg[2] 4.4683489047415094e+01
